(set-logic QF_NRA)
(set-info :source |Benchmarks generated from hycomp (https://es-static.fbk.eu/tools/hycomp/). BMC instances of non-linear hybrid automata taken from: Alessandro Cimatti, Sergio Mover, Stefano Tonetta, A quantifier-free SMT encoding of non-linear hybrid automata, FMCAD 2012 and Alessandro Cimatti, Sergio Mover, Stefano Tonetta, Quantier-free encoding of invariants for Hybrid Systems, Formal Methods in System Design. This instance solves a BMC problem of depth 1 and uses the encoding obtained with quantifier elimination using redlog encoding. Contacts: Sergio Mover (mover@fbk.eu), Stefano Tonetta (tonettas@fbk.eu), Alessandro Cimatti (cimatti@fbk.eu).|)
(set-info :smt-lib-version 2.0)
(set-info :category "industrial")
(set-info :status unsat)
;; MathSAT API call trace
;; generated on Mon Mar 19 10:50:53 2012
(declare-fun b.EVENT.0__AT0 () Bool)
(declare-fun b.EVENT.1__AT0 () Bool)
(declare-fun b.bool_atom__AT0 () Bool)
(declare-fun b.counter.2__AT0 () Bool)
(declare-fun b.speed_y__AT1 () Real)
(declare-fun b.x__AT1 () Real)
(declare-fun b.x__AT0 () Real)
(declare-fun b.event_is_timed__AT0 () Bool)
(declare-fun b.time__AT1 () Real)
(declare-fun b.bool_atom__AT1 () Bool)
(declare-fun b.g__AT0 () Real)
(declare-fun b.time__AT0 () Real)
(declare-fun b.delta__AT0 () Real)
(declare-fun b.counter.3__AT0 () Bool)
(declare-fun b.speed_y__AT0 () Real)
(declare-fun b.y__AT1 () Real)
(declare-fun b.counter.0__AT1 () Bool)
(declare-fun b.counter.1__AT1 () Bool)
(declare-fun b.counter.2__AT1 () Bool)
(declare-fun b.counter.3__AT1 () Bool)
(declare-fun b.delta__AT1 () Real)
(declare-fun b.EVENT.0__AT1 () Bool)
(declare-fun b.EVENT.1__AT1 () Bool)
(declare-fun b.event_is_timed__AT1 () Bool)
(declare-fun b.y__AT0 () Real)
(declare-fun b.counter.0__AT0 () Bool)
(declare-fun b.counter.1__AT0 () Bool)
(assert (let ((.def_302 (* b.x__AT1 b.x__AT1)))
(let ((.def_298 (* 5.0 b.delta__AT1)))
(let ((.def_299 (* b.delta__AT1 .def_298)))
(let ((.def_300 (* (- 1.0) .def_299)))
(let ((.def_305 (+ .def_300 .def_302)))
(let ((.def_297 (* b.speed_y__AT1 b.delta__AT1)))
(let ((.def_306 (+ .def_297 .def_305)))
(let ((.def_307 (+ b.y__AT1 .def_306)))
(let ((.def_308 (<= 0.0 .def_307)))
(let ((.def_338 (not .def_308)))
(let ((.def_320 (* (- 10.0) b.delta__AT1)))
(let ((.def_321 (+ b.speed_y__AT1 .def_320)))
(let ((.def_322 (<= 0.0 .def_321)))
(let ((.def_339 (and .def_322 .def_338)))
(let ((.def_331 (+ b.y__AT1 .def_302)))
(let ((.def_336 (<= 0.0 .def_331)))
(let ((.def_333 (<= b.speed_y__AT1 0.0 )))
(let ((.def_337 (or .def_333 .def_336)))
(let ((.def_340 (or .def_337 .def_339)))
(let ((.def_332 (<= .def_331 0.0 )))
(let ((.def_334 (and .def_332 .def_333)))
(let ((.def_326 (<= .def_321 0.0 )))
(let ((.def_327 (not .def_326)))
(let ((.def_324 (= .def_307 0.0 )))
(let ((.def_325 (not .def_324)))
(let ((.def_328 (or .def_325 .def_327)))
(let ((.def_323 (or .def_308 .def_322)))
(let ((.def_329 (and .def_323 .def_328)))
(let ((.def_310 (* 20.0 b.x__AT1)))
(let ((.def_311 (* b.x__AT1 .def_310)))
(let ((.def_181 (* b.speed_y__AT1 b.speed_y__AT1)))
(let ((.def_312 (+ .def_181 .def_311)))
(let ((.def_313 (* 20.0 b.y__AT1)))
(let ((.def_315 (+ .def_313 .def_312)))
(let ((.def_318 (<= .def_315 0.0 )))
(let ((.def_319 (not .def_318)))
(let ((.def_330 (or .def_319 .def_329)))
(let ((.def_335 (or .def_330 .def_334)))
(let ((.def_341 (and .def_335 .def_340)))
(let ((.def_316 (<= 0.0 .def_315)))
(let ((.def_317 (not .def_316)))
(let ((.def_342 (or .def_317 .def_341)))
(let ((.def_295 (<= 0.0 b.delta__AT1)))
(let ((.def_296 (not .def_295)))
(let ((.def_309 (or .def_296 .def_308)))
(let ((.def_343 (and .def_309 .def_342)))
(let ((.def_275 (not b.EVENT.0__AT1)))
(let ((.def_273 (not b.EVENT.1__AT1)))
(let ((.def_292 (and .def_273 .def_275)))
(let ((.def_293 (not .def_292)))
(let ((.def_344 (or .def_293 .def_343)))
(let ((.def_34 (not b.counter.0__AT0)))
(let ((.def_32 (not b.counter.1__AT0)))
(let ((.def_35 (and .def_32 .def_34)))
(let ((.def_288 (or .def_35 b.counter.3__AT0)))
(let ((.def_285 (or .def_35 b.counter.2__AT0)))
(let ((.def_37 (not b.counter.2__AT0)))
(let ((.def_284 (or .def_32 .def_37)))
(let ((.def_286 (and .def_284 .def_285)))
(let ((.def_40 (not b.counter.3__AT0)))
(let ((.def_287 (or .def_40 .def_286)))
(let ((.def_289 (and .def_287 .def_288)))
(let ((.def_278 (* (- 1.0) b.x__AT1)))
(let ((.def_279 (* b.x__AT1 .def_278)))
(let ((.def_280 (<= .def_279 b.y__AT1)))
(let ((.def_64 (<= b.g__AT0 10.0 )))
(let ((.def_63 (<= 8.0 b.g__AT0)))
(let ((.def_65 (and .def_63 .def_64)))
(let ((.def_281 (and .def_65 .def_280)))
(let ((.def_276 (or .def_273 .def_275)))
(let ((.def_9 (not b.counter.0__AT1)))
(let ((.def_6 (not b.counter.1__AT1)))
(let ((.def_266 (or .def_6 .def_9)))
(let ((.def_270 (or b.counter.3__AT1 .def_266)))
(let ((.def_267 (or b.counter.2__AT1 .def_266)))
(let ((.def_4 (not b.counter.2__AT1)))
(let ((.def_265 (or .def_4 .def_9)))
(let ((.def_268 (and .def_265 .def_267)))
(let ((.def_14 (not b.counter.3__AT1)))
(let ((.def_269 (or .def_14 .def_268)))
(let ((.def_271 (and .def_269 .def_270)))
(let ((.def_277 (and .def_271 .def_276)))
(let ((.def_282 (and .def_277 .def_281)))
(let ((.def_73 (<= 0.0 b.delta__AT0)))
(let ((.def_53 (not b.EVENT.0__AT0)))
(let ((.def_51 (not b.EVENT.1__AT0)))
(let ((.def_70 (and .def_51 .def_53)))
(let ((.def_71 (not .def_70)))
(let ((.def_261 (or .def_71 .def_73)))
(let ((.def_262 (or b.EVENT.1__AT0 .def_261)))
(let ((.def_168 (= b.bool_atom__AT0 b.bool_atom__AT1)))
(let ((.def_163 (= b.counter.0__AT1 b.counter.0__AT0)))
(let ((.def_161 (= b.counter.1__AT1 b.counter.1__AT0)))
(let ((.def_159 (= b.counter.2__AT1 b.counter.2__AT0)))
(let ((.def_158 (= b.counter.3__AT1 b.counter.3__AT0)))
(let ((.def_160 (and .def_158 .def_159)))
(let ((.def_162 (and .def_160 .def_161)))
(let ((.def_164 (and .def_162 .def_163)))
(let ((.def_257 (and .def_164 .def_168)))
(let ((.def_258 (or .def_71 .def_257)))
(let ((.def_259 (or b.EVENT.1__AT0 .def_258)))
(let ((.def_231 (* (- 1.0) b.g__AT0)))
(let ((.def_245 (* b.delta__AT0 .def_231)))
(let ((.def_246 (* (- 1.0) b.speed_y__AT1)))
(let ((.def_249 (+ .def_246 .def_245)))
(let ((.def_250 (+ b.speed_y__AT0 .def_249)))
(let ((.def_251 (= .def_250 0.0 )))
(let ((.def_235 (* b.delta__AT0 b.delta__AT0)))
(let ((.def_234 (* (/ 1 2) .def_231)))
(let ((.def_236 (* .def_234 .def_235)))
(let ((.def_238 (* (- 1.0) b.y__AT1)))
(let ((.def_241 (+ .def_238 .def_236)))
(let ((.def_76 (* b.delta__AT0 b.speed_y__AT0)))
(let ((.def_242 (+ .def_76 .def_241)))
(let ((.def_243 (+ b.y__AT0 .def_242)))
(let ((.def_244 (= .def_243 0.0 )))
(let ((.def_252 (and .def_244 .def_251)))
(let ((.def_150 (= b.x__AT0 b.x__AT1)))
(let ((.def_253 (and .def_150 .def_252)))
(let ((.def_254 (or .def_71 .def_253)))
(let ((.def_153 (= b.y__AT0 b.y__AT1)))
(let ((.def_226 (and .def_150 .def_153)))
(let ((.def_156 (= b.speed_y__AT0 b.speed_y__AT1)))
(let ((.def_227 (and .def_156 .def_226)))
(let ((.def_223 (= b.delta__AT0 0.0 )))
(let ((.def_224 (and .def_70 .def_223)))
(let ((.def_225 (not .def_224)))
(let ((.def_228 (or .def_225 .def_227)))
(let ((.def_229 (or b.EVENT.1__AT0 .def_228)))
(let ((.def_216 (and .def_156 .def_164)))
(let ((.def_217 (or b.bool_atom__AT0 .def_216)))
(let ((.def_192 (or .def_9 b.counter.0__AT0)))
(let ((.def_191 (or b.counter.0__AT1 .def_34)))
(let ((.def_193 (and .def_191 .def_192)))
(let ((.def_194 (and .def_6 .def_193)))
(let ((.def_195 (or b.counter.1__AT0 .def_194)))
(let ((.def_190 (or b.counter.1__AT1 .def_32)))
(let ((.def_196 (and .def_190 .def_195)))
(let ((.def_207 (and .def_4 .def_196)))
(let ((.def_208 (or b.counter.2__AT0 .def_207)))
(let ((.def_202 (and .def_6 .def_34)))
(let ((.def_203 (or b.counter.1__AT0 .def_202)))
(let ((.def_204 (and .def_190 .def_203)))
(let ((.def_205 (and b.counter.2__AT1 .def_204)))
(let ((.def_206 (or .def_37 .def_205)))
(let ((.def_209 (and .def_206 .def_208)))
(let ((.def_210 (and b.counter.3__AT1 .def_209)))
(let ((.def_211 (or b.counter.3__AT0 .def_210)))
(let ((.def_197 (and b.counter.2__AT1 .def_196)))
(let ((.def_198 (or b.counter.2__AT0 .def_197)))
(let ((.def_186 (or b.counter.1__AT1 b.counter.1__AT0)))
(let ((.def_184 (and .def_6 b.counter.0__AT1)))
(let ((.def_185 (or .def_32 .def_184)))
(let ((.def_187 (and .def_185 .def_186)))
(let ((.def_188 (and .def_4 .def_187)))
(let ((.def_189 (or .def_37 .def_188)))
(let ((.def_199 (and .def_189 .def_198)))
(let ((.def_200 (and .def_14 .def_199)))
(let ((.def_201 (or .def_40 .def_200)))
(let ((.def_212 (and .def_201 .def_211)))
(let ((.def_90 (* b.speed_y__AT0 b.speed_y__AT0)))
(let ((.def_182 (= .def_90 .def_181)))
(let ((.def_179 (+ b.speed_y__AT0 b.speed_y__AT1)))
(let ((.def_180 (= .def_179 0.0 )))
(let ((.def_183 (and .def_180 .def_182)))
(let ((.def_213 (and .def_183 .def_212)))
(let ((.def_178 (not b.bool_atom__AT0)))
(let ((.def_214 (or .def_178 .def_213)))
(let ((.def_174 (<= 0.0 b.speed_y__AT0)))
(let ((.def_175 (not .def_174)))
(let ((.def_58 (* (- 1.0) b.x__AT0)))
(let ((.def_59 (* b.x__AT0 .def_58)))
(let ((.def_173 (= b.y__AT0 .def_59)))
(let ((.def_176 (and .def_173 .def_175)))
(let ((.def_177 (= b.bool_atom__AT0 .def_176)))
(let ((.def_215 (and .def_177 .def_214)))
(let ((.def_218 (and .def_215 .def_217)))
(let ((.def_219 (and .def_150 .def_218)))
(let ((.def_220 (and .def_153 .def_219)))
(let ((.def_221 (or .def_70 .def_220)))
(let ((.def_222 (or b.EVENT.1__AT0 .def_221)))
(let ((.def_230 (and .def_222 .def_229)))
(let ((.def_255 (and .def_230 .def_254)))
(let ((.def_137 (= b.time__AT0 b.time__AT1)))
(let ((.def_151 (and .def_137 .def_150)))
(let ((.def_154 (and .def_151 .def_153)))
(let ((.def_157 (and .def_154 .def_156)))
(let ((.def_165 (and .def_157 .def_164)))
(let ((.def_169 (and .def_165 .def_168)))
(let ((.def_170 (or .def_51 .def_169)))
(let ((.def_140 (* (- 1.0) b.time__AT1)))
(let ((.def_143 (+ b.delta__AT0 .def_140)))
(let ((.def_144 (+ b.time__AT0 .def_143)))
(let ((.def_145 (= .def_144 0.0 )))
(let ((.def_146 (or .def_71 .def_145)))
(let ((.def_147 (or b.EVENT.1__AT0 .def_146)))
(let ((.def_138 (or .def_70 .def_137)))
(let ((.def_139 (or b.EVENT.1__AT0 .def_138)))
(let ((.def_148 (and .def_139 .def_147)))
(let ((.def_171 (and .def_148 .def_170)))
(let ((.def_134 (= .def_71 b.event_is_timed__AT1)))
(let ((.def_132 (= b.event_is_timed__AT0 .def_70)))
(let ((.def_135 (and .def_132 .def_134)))
(let ((.def_172 (and .def_135 .def_171)))
(let ((.def_256 (and .def_172 .def_255)))
(let ((.def_260 (and .def_256 .def_259)))
(let ((.def_263 (and .def_260 .def_262)))
(let ((.def_264 (and .def_51 .def_263)))
(let ((.def_283 (and .def_264 .def_282)))
(let ((.def_290 (and .def_283 .def_289)))
(let ((.def_82 (* b.x__AT0 b.x__AT0)))
(let ((.def_78 (* 5.0 b.delta__AT0)))
(let ((.def_79 (* b.delta__AT0 .def_78)))
(let ((.def_80 (* (- 1.0) .def_79)))
(let ((.def_85 (+ .def_80 .def_82)))
(let ((.def_86 (+ .def_76 .def_85)))
(let ((.def_87 (+ b.y__AT0 .def_86)))
(let ((.def_88 (<= 0.0 .def_87)))
(let ((.def_124 (not .def_88)))
(let ((.def_105 (* (- 1.0) b.speed_y__AT0)))
(let ((.def_106 (* 10.0 b.delta__AT0)))
(let ((.def_107 (+ .def_106 .def_105)))
(let ((.def_108 (<= .def_107 0.0 )))
(let ((.def_125 (and .def_108 .def_124)))
(let ((.def_117 (+ b.y__AT0 .def_82)))
(let ((.def_122 (<= 0.0 .def_117)))
(let ((.def_119 (<= b.speed_y__AT0 0.0 )))
(let ((.def_123 (or .def_119 .def_122)))
(let ((.def_126 (or .def_123 .def_125)))
(let ((.def_118 (<= .def_117 0.0 )))
(let ((.def_120 (and .def_118 .def_119)))
(let ((.def_112 (<= 0.0 .def_107)))
(let ((.def_113 (not .def_112)))
(let ((.def_110 (= .def_87 0.0 )))
(let ((.def_111 (not .def_110)))
(let ((.def_114 (or .def_111 .def_113)))
(let ((.def_109 (or .def_88 .def_108)))
(let ((.def_115 (and .def_109 .def_114)))
(let ((.def_92 (* 20.0 b.x__AT0)))
(let ((.def_93 (* b.x__AT0 .def_92)))
(let ((.def_94 (+ .def_90 .def_93)))
(let ((.def_95 (* 20.0 b.y__AT0)))
(let ((.def_97 (+ .def_95 .def_94)))
(let ((.def_100 (<= .def_97 0.0 )))
(let ((.def_101 (not .def_100)))
(let ((.def_116 (or .def_101 .def_115)))
(let ((.def_121 (or .def_116 .def_120)))
(let ((.def_127 (and .def_121 .def_126)))
(let ((.def_98 (<= 0.0 .def_97)))
(let ((.def_99 (not .def_98)))
(let ((.def_128 (or .def_99 .def_127)))
(let ((.def_74 (not .def_73)))
(let ((.def_89 (or .def_74 .def_88)))
(let ((.def_129 (and .def_89 .def_128)))
(let ((.def_130 (or .def_71 .def_129)))
(let ((.def_60 (<= .def_59 b.y__AT0)))
(let ((.def_66 (and .def_60 .def_65)))
(let ((.def_54 (or .def_51 .def_53)))
(let ((.def_44 (or .def_32 .def_34)))
(let ((.def_48 (or b.counter.3__AT0 .def_44)))
(let ((.def_45 (or b.counter.2__AT0 .def_44)))
(let ((.def_43 (or .def_34 .def_37)))
(let ((.def_46 (and .def_43 .def_45)))
(let ((.def_47 (or .def_40 .def_46)))
(let ((.def_49 (and .def_47 .def_48)))
(let ((.def_55 (and .def_49 .def_54)))
(let ((.def_67 (and .def_55 .def_66)))
(let ((.def_38 (and .def_35 .def_37)))
(let ((.def_41 (and .def_38 .def_40)))
(let ((.def_29 (= b.y__AT0 10.0 )))
(let ((.def_25 (= b.x__AT0 0.0 )))
(let ((.def_21 (= b.time__AT0 0.0 )))
(let ((.def_23 (and .def_21 b.event_is_timed__AT0)))
(let ((.def_26 (and .def_23 .def_25)))
(let ((.def_30 (and .def_26 .def_29)))
(let ((.def_42 (and .def_30 .def_41)))
(let ((.def_68 (and .def_42 .def_67)))
(let ((.def_10 (and .def_6 .def_9)))
(let ((.def_16 (or .def_10 b.counter.3__AT1)))
(let ((.def_11 (or b.counter.2__AT1 .def_10)))
(let ((.def_7 (or .def_4 .def_6)))
(let ((.def_12 (and .def_7 .def_11)))
(let ((.def_15 (or .def_12 .def_14)))
(let ((.def_17 (and .def_15 .def_16)))
(let ((.def_18 (not .def_17)))
(let ((.def_69 (and .def_18 .def_68)))
(let ((.def_131 (and .def_69 .def_130)))
(let ((.def_291 (and .def_131 .def_290)))
(let ((.def_345 (and .def_291 .def_344)))
.def_345))))))))))))))))))))))))))))))))))))))))))))))))))))))))))))))))))))))))))))))))))))))))))))))))))))))))))))))))))))))))))))))))))))))))))))))))))))))))))))))))))))))))))))))))))))))))))))))))))))))))))))))))))))))))))))))))))))))))))))))))))))))))))))))))))))))))))))))))))))))))))))))))))
(check-sat)
(exit)
